<number of tasks>
58

<cycle time>
65

<task times>
1 10
2 53
3 41
4 36
5 35
6 17
7 34
8 23
9 14
10 52
11 33
12 34
13 12
14 52
15 12
16 33
17 44
18 7
19 15
20 13
21 29
22 37
23 43
24 23
25 24
26 9
27 16
28 12
29 26
30 22
31 51
32 47
33 34
34 23
35 12
36 52
37 12
38 33
39 44
40 7
41 15
42 13
43 29
44 37
45 43
46 23
47 24
48 9
49 16
50 12
51 26
52 12
53 52
54 12
55 33
56 44
57 7
58 15

<precedence relations>
1,9
2,25
3,21
3,22
4,10
5,36
6,23
6,24
7,43
8,44
9,11
11,13
11,14
11,15
12,17
13,17
14,17
15,17
16,18
17,20
18,19
19,23
20,21
20,25
21,26
21,44
22,27
23,31
24,31
25,38
26,29
27,30
28,32
28,33
29,31
30,34
31,36
32,45
33,35
34,36
35,43
36,37
36,38
37,39
37,40
37,41
38,52
39,43
40,43
41,42
42,43
43,45
44,45
45,46
45,48
45,49
46,47
46,50
47,51
48,55
49,58
50,58
51,52
52,53
53,54
54,55
54,56
55,57
56,57
57,58

<setup times forward>
1,2:1
1,3:2
1,4:1
1,5:1
1,6:1
1,7:3
1,8:2
1,10:2
1,12:1
1,18:1
1,19:3
1,22:2
1,27:3
1,28:1
1,32:3
1,33:1
1,34:1
1,35:2
2,1:1
2,3:1
2,4:2
2,5:2
2,7:4
2,8:1
2,9:1
2,10:3
2,11:1
2,14:2
2,15:2
2,16:1
2,18:2
2,19:4
2,21:2
2,22:3
2,23:1
2,24:1
2,25:2
2,26:1
2,27:4
2,29:3
2,30:1
2,31:1
2,32:4
2,33:2
2,35:1
2,36:4
2,37:4
2,39:1
2,40:1
2,41:4
2,42:1
2,43:2
2,46:1
2,47:1
2,48:2
2,50:3
2,51:1
3,1:2
3,2:1
3,4:3
3,5:3
3,6:1
3,7:5
3,9:2
3,10:4
3,11:2
3,12:1
3,13:1
3,14:3
3,15:3
3,16:2
3,17:1
3,18:3
3,19:5
3,20:1
3,21:3
3,22:4
3,23:2
3,24:2
3,25:3
3,28:1
3,32:5
3,33:3
4,1:1
4,2:2
4,3:3
4,6:2
4,7:2
4,8:3
4,9:1
4,10:1
4,11:1
4,12:2
4,13:2
4,16:1
4,17:2
4,19:2
4,20:2
4,22:1
4,23:1
4,24:1
4,26:1
4,27:2
4,28:2
4,29:1
4,30:1
4,31:3
4,32:2
4,34:2
4,35:3
4,36:2
4,37:2
4,38:3
4,39:3
4,40:3
4,41:2
4,42:3
4,44:2
4,45:2
4,46:3
4,47:3
4,49:2
4,50:1
4,51:3
4,52:2
4,53:2
5,1:1
5,2:2
5,3:3
5,6:2
5,7:2
5,8:3
5,9:1
5,10:1
5,11:1
5,12:2
5,13:2
5,16:1
5,17:2
5,19:2
5,20:2
5,22:1
5,23:1
5,24:1
5,26:1
5,27:2
5,28:2
5,29:1
5,30:1
5,31:3
5,32:2
5,34:2
5,35:3
5,36:2
5,44:2
6,1:1
6,3:1
6,4:2
6,5:2
6,7:4
6,8:1
6,9:1
6,10:3
6,11:1
6,14:2
6,15:2
6,16:1
6,18:2
6,19:4
6,21:2
6,22:3
6,23:1
6,24:1
6,25:2
6,26:1
6,27:4
6,29:3
6,30:1
6,32:4
6,33:2
6,35:1
7,1:3
7,2:4
7,3:5
7,4:2
7,5:2
7,6:4
7,8:5
7,9:3
7,10:1
7,11:3
7,12:4
7,13:4
7,14:2
7,15:2
7,16:3
7,17:4
7,18:2
7,20:4
7,21:2
7,22:1
7,23:3
7,24:3
7,25:2
7,26:3
7,28:4
7,29:1
7,30:3
7,31:5
7,33:2
7,34:4
7,35:5
7,38:5
7,39:5
7,40:5
7,42:5
7,43:2
7,44:4
8,1:2
8,2:1
8,4:3
8,5:3
8,6:1
8,7:5
8,9:2
8,10:4
8,11:2
8,12:1
8,13:1
8,14:3
8,15:3
8,16:2
8,17:1
8,18:3
8,19:5
8,20:1
8,21:3
8,22:4
8,23:2
8,24:2
8,25:3
8,26:2
8,27:5
8,28:1
8,29:4
8,30:2
8,32:5
8,33:3
8,34:1
8,36:5
8,37:5
8,41:5
8,43:3
8,44:1
9,2:1
9,3:2
9,4:1
9,5:1
9,6:1
9,7:3
9,8:2
9,10:2
9,12:1
9,18:1
9,19:3
9,22:2
9,27:3
9,28:1
9,32:3
9,33:1
9,34:1
9,35:2
10,1:2
10,2:3
10,3:4
10,5:1
10,6:3
10,7:1
10,8:4
10,9:2
10,11:2
10,12:3
10,13:3
10,14:1
10,15:1
10,16:2
10,17:3
10,18:1
10,19:1
10,20:3
10,21:1
10,23:2
10,24:2
10,25:1
10,26:2
10,27:1
10,28:3
10,30:2
10,31:4
10,32:1
10,33:1
10,34:3
10,35:4
10,36:1
10,37:1
10,38:4
10,39:4
10,40:4
10,41:1
10,42:4
10,43:1
10,44:3
10,45:3
10,46:4
10,47:4
10,48:1
10,49:3
10,51:4
10,52:3
10,53:3
10,54:1
10,55:1
10,56:1
10,57:1
10,58:1
11,2:1
11,3:2
11,4:1
11,5:1
11,6:1
11,7:3
11,8:2
11,10:2
11,12:1
11,13:1
11,14:1
11,15:1
11,18:1
11,19:3
11,22:2
11,27:3
11,28:1
11,32:3
11,33:1
11,34:1
11,35:2
12,1:1
12,3:1
12,4:2
12,5:2
12,7:4
12,8:1
12,9:1
12,10:3
12,11:1
12,14:2
12,15:2
12,16:1
12,18:2
12,19:4
12,22:3
12,23:1
12,24:1
12,27:4
12,30:1
12,32:4
12,33:2
12,35:1
13,3:1
13,4:2
13,5:2
13,7:4
13,8:1
13,10:3
13,14:2
13,15:2
13,16:1
13,18:2
13,19:4
13,22:3
13,23:1
13,24:1
13,27:4
13,30:1
13,32:4
13,33:2
13,35:1
14,2:2
14,3:3
14,6:2
14,7:2
14,8:3
14,10:1
14,12:2
14,13:2
14,16:1
14,17:2
14,19:2
14,22:1
14,23:1
14,24:1
14,27:2
14,28:2
14,30:1
14,32:2
14,34:2
14,35:3
15,2:2
15,3:3
15,6:2
15,7:2
15,8:3
15,10:1
15,12:2
15,13:2
15,16:1
15,17:2
15,19:2
15,22:1
15,23:1
15,24:1
15,27:2
15,28:2
15,30:1
15,32:2
15,34:2
15,35:3
16,2:1
16,3:2
16,4:1
16,5:1
16,6:1
16,7:3
16,8:2
16,10:2
16,12:1
16,13:1
16,14:1
16,15:1
16,17:1
16,18:1
16,20:1
16,21:1
16,22:2
16,25:1
16,27:3
16,28:1
16,29:2
16,32:3
16,33:1
16,34:1
16,35:2
16,44:1
17,3:1
17,4:2
17,5:2
17,7:4
17,8:1
17,10:3
17,16:1
17,18:2
17,19:4
17,22:3
17,23:1
17,24:1
17,27:4
17,30:1
17,32:4
17,33:2
17,35:1
18,1:1
18,2:2
18,3:3
18,6:2
18,7:2
18,8:3
18,9:1
18,10:1
18,11:1
18,12:2
18,13:2
18,17:2
18,19:2
18,20:2
18,22:1
18,24:1
18,26:1
18,27:2
18,28:2
18,29:1
18,30:1
18,32:2
18,34:2
18,35:3
18,44:2
19,1:3
19,2:4
19,3:5
19,4:2
19,5:2
19,6:4
19,8:5
19,9:3
19,10:1
19,11:3
19,12:4
19,13:4
19,14:2
19,15:2
19,17:4
19,20:4
19,21:2
19,22:1
19,23:3
19,24:3
19,25:2
19,26:3
19,28:4
19,29:1
19,30:3
19,33:2
19,34:4
19,35:5
19,44:4
20,3:1
20,4:2
20,5:2
20,7:4
20,8:1
20,10:3
20,16:1
20,18:2
20,19:4
20,21:2
20,22:3
20,23:1
20,24:1
20,25:2
20,27:4
20,30:1
20,32:4
20,33:2
20,35:1
21,2:2
21,6:2
21,7:2
21,8:3
21,10:1
21,16:1
21,19:2
21,22:1
21,23:1
21,24:1
21,26:1
21,27:2
21,28:2
21,30:1
21,32:2
21,34:2
21,35:3
21,44:2
22,1:2
22,2:3
22,4:1
22,5:1
22,6:3
22,7:1
22,8:4
22,9:2
22,11:2
22,12:3
22,13:3
22,14:1
22,15:1
22,16:2
22,17:3
22,18:1
22,19:1
22,20:3
22,21:1
22,23:2
22,24:2
22,25:1
22,26:2
22,27:1
22,28:3
22,31:4
22,32:1
22,33:1
22,35:4
22,44:3
23,2:1
23,3:2
23,4:1
23,5:1
23,7:3
23,8:2
23,10:2
23,12:1
23,13:1
23,14:1
23,15:1
23,17:1
23,20:1
23,21:1
23,22:2
23,25:1
23,27:3
23,28:1
23,29:2
23,31:2
23,32:3
23,33:1
23,34:1
23,35:2
23,44:1
24,2:1
24,3:2
24,4:1
24,5:1
24,7:3
24,8:2
24,10:2
24,12:1
24,13:1
24,14:1
24,15:1
24,17:1
24,18:1
24,19:3
24,20:1
24,21:1
24,22:2
24,25:1
24,27:3
24,28:1
24,29:2
24,31:2
24,32:3
24,33:1
24,34:1
24,35:2
24,44:1
25,3:3
25,6:2
25,7:2
25,8:3
25,10:1
25,16:1
25,19:2
25,22:1
25,23:1
25,24:1
25,26:1
25,27:2
25,28:2
25,29:1
25,30:1
25,31:3
25,32:2
25,34:2
25,35:3
25,36:2
25,37:2
25,38:3
25,39:3
25,40:3
25,41:2
25,42:3
25,44:2
25,45:2
25,46:3
25,47:3
25,49:2
25,50:1
25,51:3
26,2:1
26,4:1
26,5:1
26,6:1
26,7:3
26,8:2
26,10:2
26,18:1
26,19:3
26,22:2
26,25:1
26,27:3
26,28:1
26,29:2
26,32:3
26,33:1
26,34:1
26,35:2
26,44:1
27,1:3
27,2:4
27,4:2
27,5:2
27,6:4
27,8:5
27,9:3
27,10:1
27,11:3
27,12:4
27,13:4
27,14:2
27,15:2
27,16:3
27,17:4
27,18:2
27,20:4
27,21:2
27,23:3
27,24:3
27,25:2
27,26:3
27,28:4
27,29:1
27,30:3
27,31:5
27,33:2
27,35:5
27,44:4
28,1:1
28,3:1
28,4:2
28,5:2
28,7:4
28,8:1
28,9:1
28,10:3
28,11:1
28,14:2
28,15:2
28,16:1
28,18:2
28,19:4
28,21:2
28,22:3
28,23:1
28,24:1
28,25:2
28,26:1
28,27:4
28,29:3
28,30:1
28,31:1
28,32:4
28,33:2
28,36:4
28,37:4
28,38:1
28,39:1
28,40:1
28,41:4
28,42:1
29,2:3
29,4:1
29,5:1
29,6:3
29,7:1
29,8:4
29,16:2
29,18:1
29,19:1
29,23:2
29,24:2
29,25:1
29,27:1
29,28:3
29,30:2
29,31:4
29,32:1
29,33:1
29,34:3
29,35:4
29,44:3
30,2:1
30,4:1
30,5:1
30,6:1
30,7:3
30,8:2
30,10:2
30,12:1
30,13:1
30,14:1
30,15:1
30,17:1
30,18:1
30,19:3
30,20:1
30,21:1
30,25:1
30,28:1
30,29:2
30,31:2
30,32:3
30,33:1
30,34:1
30,35:2
30,44:1
31,2:1
31,4:3
31,5:3
31,7:5
31,10:4
31,22:4
31,25:3
31,27:5
31,28:1
31,30:2
31,32:5
31,33:3
31,34:1
31,36:5
31,44:1
32,1:3
32,2:4
32,3:5
32,4:2
32,5:2
32,6:4
32,8:5
32,9:3
32,10:1
32,11:3
32,12:4
32,13:4
32,14:2
32,15:2
32,16:3
32,17:4
32,18:2
32,20:4
32,21:2
32,22:1
32,23:3
32,24:3
32,25:2
32,26:3
32,29:1
32,30:3
32,31:5
32,33:2
32,34:4
32,35:5
32,38:5
32,39:5
32,40:5
32,42:5
32,43:2
32,44:4
32,45:4
33,1:1
33,2:2
33,3:3
33,6:2
33,7:2
33,8:3
33,9:1
33,10:1
33,11:1
33,12:2
33,13:2
33,16:1
33,17:2
33,19:2
33,20:2
33,22:1
33,23:1
33,24:1
33,26:1
33,27:2
33,29:1
33,30:1
33,31:3
33,32:2
33,34:2
33,35:3
33,36:2
33,37:2
33,38:3
33,39:3
33,40:3
33,41:2
33,42:3
33,44:2
34,1:1
34,4:2
34,5:2
34,7:4
34,8:1
34,9:1
34,10:3
34,11:1
34,14:2
34,15:2
34,16:1
34,18:2
34,19:4
34,21:2
34,23:1
34,24:1
34,25:2
34,26:1
34,29:3
34,31:1
34,32:4
34,33:2
34,35:1
34,36:4
35,1:2
35,2:1
35,4:3
35,5:3
35,6:1
35,7:5
35,9:2
35,10:4
35,11:2
35,12:1
35,13:1
35,14:3
35,15:3
35,16:2
35,17:1
35,18:3
35,19:5
35,20:1
35,21:3
35,22:4
35,23:2
35,24:2
35,25:3
35,26:2
35,27:5
35,29:4
35,30:2
35,32:5
35,34:1
35,36:5
35,37:5
35,41:5
35,43:3
35,44:1
36,2:4
36,4:2
36,8:5
36,10:1
36,25:2
36,28:4
36,33:2
36,35:5
36,38:5
36,44:4
37,2:4
37,4:2
37,8:5
37,10:1
37,25:2
37,28:4
37,33:2
37,35:5
37,38:5
37,39:5
37,40:5
37,44:4
38,4:3
38,7:5
38,10:4
38,28:1
38,32:5
38,33:3
38,37:5
38,41:5
38,43:3
38,44:1
38,45:1
38,48:3
38,49:1
38,50:4
38,52:1
39,2:1
39,4:3
39,7:5
39,10:4
39,25:3
39,28:1
39,32:5
39,33:3
39,41:5
39,43:3
39,44:1
40,2:1
40,4:3
40,7:5
40,10:4
40,25:3
40,28:1
40,32:5
40,33:3
40,41:5
40,43:3
40,44:1
41,2:4
41,4:2
41,8:5
41,10:1
41,25:2
41,28:4
41,33:2
41,35:5
41,38:5
41,39:5
41,40:5
41,42:5
41,44:4
42,2:1
42,4:3
42,7:5
42,10:4
42,25:3
42,28:1
42,32:5
42,33:3
42,43:3
42,44:1
43,2:2
43,8:3
43,10:1
43,32:2
43,38:3
43,44:2
43,45:2
44,4:2
44,5:2
44,7:4
44,10:3
44,16:1
44,18:2
44,19:4
44,22:3
44,23:1
44,24:1
44,25:2
44,26:1
44,27:4
44,29:3
44,30:1
44,31:1
44,32:4
44,33:2
44,35:1
44,36:4
44,37:4
44,38:1
44,39:1
44,40:1
44,41:4
44,42:1
44,43:2
45,4:2
45,10:3
45,25:2
45,38:1
45,46:1
45,48:2
46,2:1
46,4:3
46,10:4
46,25:3
46,48:3
46,49:1
46,50:4
47,2:1
47,4:3
47,10:4
47,25:3
47,48:3
47,49:1
47,50:4
48,2:2
48,10:1
48,38:3
48,46:3
48,47:3
48,49:2
48,50:1
48,51:3
48,52:2
48,53:2
49,4:2
49,10:3
49,25:2
49,38:1
49,46:1
49,47:1
49,48:2
49,50:3
49,51:1
49,54:2
49,55:2
49,56:2
49,57:2
49,58:2
50,2:3
50,4:1
50,25:1
50,38:4
50,47:4
50,48:1
50,49:3
50,51:4
50,52:3
50,53:3
50,54:1
50,55:1
50,56:1
50,57:1
50,58:1
51,2:1
51,4:3
51,10:4
51,25:3
51,48:3
51,49:1
51,50:4
51,52:1
52,4:2
52,10:3
52,48:2
52,50:3
53,4:2
53,10:3
53,48:2
53,50:3
53,54:2
54,10:1
54,49:2
54,50:1
55,10:1
55,49:2
55,50:1
56,10:1
56,49:2
56,50:1
57,10:1
57,49:2
57,50:1
58,10:1

<setup times backward>
1,4:1
1,5:1
1,7:3
1,10:2
1,18:1
1,19:3
1,22:2
1,27:3
1,32:3
1,33:1
2,1:1
2,4:2
2,5:2
2,7:4
2,9:1
2,10:3
2,11:1
2,14:2
2,15:2
2,16:1
2,18:2
2,19:4
2,21:2
2,22:3
2,23:1
2,24:1
2,26:1
2,27:4
2,29:3
2,30:1
2,32:4
2,33:2
2,36:4
2,37:4
2,41:4
2,43:2
2,48:2
2,50:3
3,1:2
3,2:1
3,4:3
3,5:3
3,6:1
3,7:5
3,9:2
3,10:4
3,11:2
3,12:1
3,13:1
3,14:3
3,15:3
3,16:2
3,17:1
3,18:3
3,19:5
3,20:1
3,23:2
3,24:2
3,25:3
3,28:1
3,32:5
3,33:3
4,7:2
4,19:2
4,22:1
4,27:2
4,29:1
4,32:2
4,36:2
4,37:2
4,41:2
4,50:1
5,7:2
5,10:1
5,19:2
5,22:1
5,27:2
5,29:1
5,32:2
6,1:1
6,4:2
6,5:2
6,7:4
6,9:1
6,10:3
6,11:1
6,14:2
6,15:2
6,16:1
6,18:2
6,19:4
6,21:2
6,22:3
6,25:2
6,26:1
6,27:4
6,29:3
6,30:1
6,32:4
6,33:2
8,1:2
8,2:1
8,4:3
8,5:3
8,6:1
8,7:5
8,9:2
8,10:4
8,11:2
8,12:1
8,13:1
8,14:3
8,15:3
8,16:2
8,17:1
8,18:3
8,19:5
8,20:1
8,21:3
8,22:4
8,23:2
8,24:2
8,25:3
8,26:2
8,27:5
8,28:1
8,29:4
8,30:2
8,32:5
8,33:3
8,34:1
8,36:5
8,37:5
8,41:5
8,43:3
9,4:1
9,5:1
9,7:3
9,10:2
9,18:1
9,19:3
9,22:2
9,27:3
9,32:3
9,33:1
10,7:1
10,19:1
10,27:1
10,32:1
10,36:1
10,37:1
10,41:1
11,4:1
11,5:1
11,7:3
11,10:2
11,18:1
11,19:3
11,22:2
11,27:3
11,32:3
11,33:1
12,1:1
12,4:2
12,5:2
12,7:4
12,9:1
12,10:3
12,11:1
12,14:2
12,15:2
12,16:1
12,18:2
12,19:4
12,22:3
12,23:1
12,24:1
12,27:4
12,30:1
12,32:4
12,33:2
13,1:1
13,4:2
13,5:2
13,7:4
13,9:1
13,10:3
13,11:1
13,14:2
13,15:2
13,16:1
13,18:2
13,19:4
13,22:3
13,23:1
13,24:1
13,27:4
13,30:1
13,32:4
13,33:2
14,7:2
14,10:1
14,19:2
14,22:1
14,27:2
14,32:2
15,7:2
15,10:1
15,19:2
15,22:1
15,27:2
15,32:2
16,4:1
16,5:1
16,7:3
16,10:2
16,14:1
16,15:1
16,21:1
16,22:2
16,25:1
16,27:3
16,29:2
16,32:3
16,33:1
17,1:1
17,4:2
17,5:2
17,7:4
17,9:1
17,10:3
17,11:1
17,14:2
17,15:2
17,16:1
17,18:2
17,19:4
17,22:3
17,23:1
17,24:1
17,27:4
17,30:1
17,32:4
17,33:2
18,7:2
18,10:1
18,22:1
18,27:2
18,29:1
18,32:2
20,1:1
20,4:2
20,5:2
20,7:4
20,9:1
20,10:3
20,11:1
20,14:2
20,15:2
20,16:1
20,18:2
20,19:4
20,22:3
20,23:1
20,24:1
20,27:4
20,30:1
20,32:4
20,33:2
21,7:2
21,10:1
21,19:2
21,22:1
21,27:2
21,32:2
22,7:1
22,19:1
22,32:1
23,4:1
23,5:1
23,7:3
23,10:2
23,14:1
23,15:1
23,18:1
23,19:3
23,21:1
23,22:2
23,25:1
23,27:3
23,29:2
23,32:3
23,33:1
24,4:1
24,5:1
24,7:3
24,10:2
24,14:1
24,15:1
24,18:1
24,19:3
24,21:1
24,22:2
24,25:1
24,27:3
24,29:2
24,32:3
24,33:1
25,7:2
25,10:1
25,19:2
25,22:1
25,27:2
25,29:1
25,32:2
25,36:2
25,37:2
25,41:2
25,50:1
26,4:1
26,5:1
26,7:3
26,10:2
26,14:1
26,15:1
26,18:1
26,19:3
26,21:1
26,22:2
26,25:1
26,27:3
26,32:3
26,33:1
28,1:1
28,4:2
28,5:2
28,7:4
28,9:1
28,10:3
28,11:1
28,14:2
28,15:2
28,16:1
28,18:2
28,19:4
28,21:2
28,22:3
28,23:1
28,24:1
28,25:2
28,26:1
28,27:4
28,29:3
28,30:1
28,36:4
28,37:4
28,41:4
29,7:1
29,19:1
29,27:1
29,32:1
30,4:1
30,5:1
30,7:3
30,10:2
30,14:1
30,15:1
30,18:1
30,19:3
30,21:1
30,22:2
30,25:1
30,27:3
30,29:2
30,32:3
30,33:1
31,1:2
31,2:1
31,4:3
31,5:3
31,6:1
31,7:5
31,9:2
31,10:4
31,11:2
31,12:1
31,13:1
31,14:3
31,15:3
31,16:2
31,17:1
31,18:3
31,19:5
31,20:1
31,21:3
31,22:4
31,23:2
31,24:2
31,25:3
31,26:2
31,27:5
31,28:1
31,29:4
31,30:2
31,32:5
31,33:3
31,34:1
31,44:1
33,7:2
33,10:1
33,19:2
33,22:1
33,27:2
33,29:1
33,32:2
33,36:2
33,37:2
33,41:2
34,1:1
34,4:2
34,5:2
34,7:4
34,9:1
34,10:3
34,11:1
34,14:2
34,15:2
34,16:1
34,18:2
34,19:4
34,21:2
34,22:3
34,23:1
34,24:1
34,25:2
34,26:1
34,27:4
34,29:3
34,30:1
34,32:4
34,33:2
35,1:2
35,2:1
35,4:3
35,5:3
35,6:1
35,7:5
35,9:2
35,10:4
35,11:2
35,12:1
35,13:1
35,14:3
35,15:3
35,16:2
35,17:1
35,18:3
35,19:5
35,20:1
35,21:3
35,22:4
35,23:2
35,24:2
35,25:3
35,26:2
35,27:5
35,28:1
35,29:4
35,30:2
35,32:5
35,33:3
35,34:1
35,36:5
35,37:5
35,41:5
35,44:1
38,1:2
38,2:1
38,4:3
38,5:3
38,6:1
38,7:5
38,9:2
38,10:4
38,11:2
38,12:1
38,13:1
38,14:3
38,15:3
38,16:2
38,17:1
38,18:3
38,19:5
38,20:1
38,21:3
38,22:4
38,23:2
38,24:2
38,25:3
38,26:2
38,27:5
38,28:1
38,29:4
38,30:2
38,32:5
38,33:3
38,34:1
38,36:5
38,37:5
38,41:5
38,43:3
38,44:1
38,45:1
38,48:3
38,49:1
38,50:4
39,1:2
39,2:1
39,4:3
39,5:3
39,6:1
39,7:5
39,9:2
39,10:4
39,11:2
39,12:1
39,13:1
39,14:3
39,15:3
39,16:2
39,17:1
39,18:3
39,19:5
39,20:1
39,21:3
39,22:4
39,23:2
39,24:2
39,25:3
39,26:2
39,27:5
39,28:1
39,29:4
39,30:2
39,32:5
39,33:3
39,34:1
39,36:5
39,37:5
39,41:5
39,44:1
40,1:2
40,2:1
40,4:3
40,5:3
40,6:1
40,7:5
40,9:2
40,10:4
40,11:2
40,12:1
40,13:1
40,14:3
40,15:3
40,16:2
40,17:1
40,18:3
40,19:5
40,20:1
40,21:3
40,22:4
40,23:2
40,24:2
40,25:3
40,26:2
40,27:5
40,28:1
40,29:4
40,30:2
40,32:5
40,33:3
40,34:1
40,36:5
40,37:5
40,41:5
40,44:1
42,1:2
42,2:1
42,4:3
42,5:3
42,6:1
42,7:5
42,9:2
42,10:4
42,11:2
42,12:1
42,13:1
42,14:3
42,15:3
42,16:2
42,17:1
42,18:3
42,19:5
42,20:1
42,21:3
42,22:4
42,23:2
42,24:2
42,25:3
42,26:2
42,27:5
42,28:1
42,29:4
42,30:2
42,32:5
42,33:3
42,34:1
42,36:5
42,37:5
42,41:5
42,44:1
43,7:2
43,10:1
43,19:2
43,22:1
43,27:2
43,29:1
43,32:2
43,36:2
43,37:2
43,41:2
44,1:1
44,4:2
44,5:2
44,7:4
44,9:1
44,10:3
44,11:1
44,14:2
44,15:2
44,16:1
44,18:2
44,19:4
44,21:2
44,22:3
44,23:1
44,24:1
44,25:2
44,26:1
44,27:4
44,29:3
44,30:1
44,32:4
44,33:2
44,36:4
44,37:4
44,41:4
44,43:2
45,1:1
45,4:2
45,5:2
45,7:4
45,9:1
45,10:3
45,11:1
45,14:2
45,15:2
45,16:1
45,18:2
45,19:4
45,21:2
45,22:3
45,23:1
45,24:1
45,25:2
45,26:1
45,27:4
45,29:3
45,30:1
45,32:4
45,33:2
45,36:4
45,37:4
45,41:4
45,43:2
46,1:2
46,2:1
46,4:3
46,5:3
46,6:1
46,7:5
46,9:2
46,10:4
46,11:2
46,12:1
46,13:1
46,14:3
46,15:3
46,16:2
46,17:1
46,18:3
46,19:5
46,20:1
46,21:3
46,22:4
46,23:2
46,24:2
46,25:3
46,26:2
46,27:5
46,28:1
46,29:4
46,30:2
46,32:5
46,33:3
46,34:1
46,36:5
46,37:5
46,41:5
46,43:3
46,44:1
46,45:1
46,48:3
46,49:1
47,1:2
47,2:1
47,4:3
47,5:3
47,6:1
47,7:5
47,9:2
47,10:4
47,11:2
47,12:1
47,13:1
47,14:3
47,15:3
47,16:2
47,17:1
47,18:3
47,19:5
47,20:1
47,21:3
47,22:4
47,23:2
47,24:2
47,25:3
47,26:2
47,27:5
47,28:1
47,29:4
47,30:2
47,32:5
47,33:3
47,34:1
47,36:5
47,37:5
47,41:5
47,43:3
47,44:1
47,45:1
47,48:3
47,49:1
47,50:4
48,7:2
48,10:1
48,19:2
48,22:1
48,27:2
48,29:1
48,32:2
48,36:2
48,37:2
48,41:2
48,50:1
49,1:1
49,4:2
49,5:2
49,7:4
49,9:1
49,10:3
49,11:1
49,14:2
49,15:2
49,16:1
49,18:2
49,19:4
49,21:2
49,22:3
49,23:1
49,24:1
49,25:2
49,26:1
49,27:4
49,29:3
49,30:1
49,32:4
49,33:2
49,36:4
49,37:4
49,41:4
49,43:2
49,48:2
49,50:3
49,54:2
49,55:2
49,56:2
49,57:2
50,7:1
50,19:1
50,27:1
50,32:1
50,36:1
50,37:1
50,41:1
51,1:2
51,2:1
51,4:3
51,5:3
51,6:1
51,7:5
51,9:2
51,10:4
51,11:2
51,12:1
51,13:1
51,14:3
51,15:3
51,16:2
51,17:1
51,18:3
51,19:5
51,20:1
51,21:3
51,22:4
51,23:2
51,24:2
51,25:3
51,26:2
51,27:5
51,28:1
51,29:4
51,30:2
51,32:5
51,33:3
51,34:1
51,36:5
51,37:5
51,41:5
51,43:3
51,44:1
51,45:1
51,48:3
51,49:1
51,50:4
52,1:1
52,4:2
52,5:2
52,7:4
52,9:1
52,10:3
52,11:1
52,14:2
52,15:2
52,16:1
52,18:2
52,19:4
52,21:2
52,22:3
52,23:1
52,24:1
52,25:2
52,26:1
52,27:4
52,29:3
52,30:1
52,32:4
52,33:2
52,36:4
52,37:4
52,41:4
52,43:2
52,48:2
52,50:3
53,1:1
53,4:2
53,5:2
53,7:4
53,9:1
53,10:3
53,11:1
53,14:2
53,15:2
53,16:1
53,18:2
53,19:4
53,21:2
53,22:3
53,23:1
53,24:1
53,25:2
53,26:1
53,27:4
53,29:3
53,30:1
53,32:4
53,33:2
53,36:4
53,37:4
53,41:4
53,43:2
53,48:2
53,50:3
54,7:2
54,10:1
54,19:2
54,22:1
54,27:2
54,29:1
54,32:2
54,36:2
54,37:2
54,41:2
54,50:1
55,7:2
55,10:1
55,19:2
55,22:1
55,27:2
55,29:1
55,32:2
55,36:2
55,37:2
55,41:2
55,50:1
56,7:2
56,10:1
56,19:2
56,22:1
56,27:2
56,29:1
56,32:2
56,36:2
56,37:2
56,41:2
56,50:1
57,7:2
57,10:1
57,19:2
57,22:1
57,27:2
57,29:1
57,32:2
57,36:2
57,37:2
57,41:2
57,50:1
58,7:2
58,10:1
58,19:2
58,22:1
58,27:2
58,29:1
58,32:2
58,36:2
58,37:2
58,41:2
58,50:1

<end>

<optimal SALBP-1 value>
25


<rand seed>
467321153

